presolving:
(round 1, fast)       3068 del vars, 1144 del conss, 0 add conss, 796 chg bounds, 54 chg sides, 27 chg coeffs, 36 upgd conss, 0 impls, 5325 clqs
(round 2, fast)       6209 del vars, 3759 del conss, 0 add conss, 796 chg bounds, 56 chg sides, 29 chg coeffs, 36 upgd conss, 0 impls, 5325 clqs
(round 3, exhaustive) 6209 del vars, 3764 del conss, 0 add conss, 796 chg bounds, 56 chg sides, 29 chg coeffs, 36 upgd conss, 0 impls, 5325 clqs
(round 4, exhaustive) 6209 del vars, 3764 del conss, 0 add conss, 796 chg bounds, 56 chg sides, 29 chg coeffs, 5381 upgd conss, 0 impls, 5325 clqs
(round 5, medium)     6209 del vars, 3771 del conss, 5 add conss, 796 chg bounds, 56 chg sides, 29 chg coeffs, 5381 upgd conss, 0 impls, 5325 clqs
(round 6, exhaustive) 6209 del vars, 3786 del conss, 153 add conss, 806 chg bounds, 56 chg sides, 52 chg coeffs, 6121 upgd conss, 0 impls, 5325 clqs
(round 7, fast)       6372 del vars, 3934 del conss, 153 add conss, 806 chg bounds, 56 chg sides, 52 chg coeffs, 6121 upgd conss, 0 impls, 5621 clqs
(round 8, exhaustive) 6372 del vars, 3934 del conss, 153 add conss, 806 chg bounds, 56 chg sides, 52 chg coeffs, 6713 upgd conss, 0 impls, 5621 clqs
(round 9, fast)       6372 del vars, 3934 del conss, 153 add conss, 806 chg bounds, 648 chg sides, 348 chg coeffs, 6713 upgd conss, 0 impls, 5621 clqs
   (2.8s) probing: 1000/5206 (19.2%) - 0 fixings, 0 aggregations, 183486 implications, 0 bound changes
   (2.8s) probing: 1001/5206 (19.2%) - 0 fixings, 0 aggregations, 183486 implications, 0 bound changes
   (2.8s) probing aborted: 1000/1000 successive useless probings
   (2.8s) symmetry computation started: requiring (bin +, int -, cont +), (fixed: bin -, int +, cont -)
   (2.9s) no symmetry present
   (2.9s) symmetry computation started: requiring (bin +, int +, cont +), (fixed: bin -, int -, cont -)
   (2.9s) no symmetry present
presolving (10 rounds: 10 fast, 6 medium, 5 exhaustive):
 6372 deleted vars, 3934 deleted constraints, 153 added constraints, 806 tightened bounds, 0 added holes, 648 changed sides, 348 changed coefficients
 16262 implications, 35178 cliques
presolved problem has 5502 variables (5058 bin, 296 int, 148 impl, 0 cont) and 6101 constraints
    592 constraints of type <varbound>
     18 constraints of type <knapsack>
   5325 constraints of type <setppc>
    148 constraints of type <and>
     18 constraints of type <linear>
Presolving Time: 2.76

 time | node  | left  |LP iter|LP it/n|mem/heur|mdpt |vars |cons |rows |cuts |sepa|confs|strbr|  dualbound   | primalbound  |  gap   | compl. 
p 3.0s|     1 |     0 |     0 |     - |  clique|   0 |5502 |6101 |6249 |   0 |  0 |   0 |   0 | 0.000000e+00 | 8.432685e+05 |    Inf | unknown
  3.5s|     1 |     0 |  1464 |     - |    86M |   0 |5502 |6118 |6249 |   0 |  0 |  21 |   0 | 6.517546e+05 | 8.432685e+05 |  29.38%| unknown
  5.8s|     1 |     0 |  1487 |     - |    89M |   0 |5502 |6118 |6256 |   7 |  1 |  21 |   0 | 6.518189e+05 | 8.432685e+05 |  29.37%| unknown
  6.3s|     1 |     0 |  1503 |     - |    92M |   0 |5502 |6119 |6263 |  14 |  2 |  22 |   0 | 6.518851e+05 | 8.432685e+05 |  29.36%| unknown
  7.1s|     1 |     0 |  1583 |     - |    94M |   0 |5502 |6119 |6270 |  21 |  3 |  22 |   0 | 6.520231e+05 | 8.432685e+05 |  29.33%| unknown
  7.7s|     1 |     0 |  1643 |     - |    95M |   0 |5502 |6119 |6275 |  26 |  4 |  22 |   0 | 6.520991e+05 | 8.432685e+05 |  29.32%| unknown
  8.9s|     1 |     0 |  1676 |     - |    96M |   0 |5502 |6119 |6279 |  30 |  5 |  22 |   0 | 6.521443e+05 | 8.432685e+05 |  29.31%| unknown
  9.2s|     1 |     0 |  1794 |     - |    98M |   0 |5502 |6119 |6285 |  36 |  6 |  22 |   0 | 6.522466e+05 | 8.432685e+05 |  29.29%| unknown
  9.7s|     1 |     0 |  1904 |     - |    99M |   0 |5502 |6120 |6291 |  42 |  7 |  23 |   0 | 6.523218e+05 | 8.432685e+05 |  29.27%| unknown
 10.3s|     1 |     0 |  1991 |     - |   100M |   0 |5502 |6120 |6297 |  48 |  8 |  23 |   0 | 6.525361e+05 | 8.432685e+05 |  29.23%| unknown
 10.9s|     1 |     0 |  2178 |     - |   102M |   0 |5502 |6120 |6304 |  55 |  9 |  23 |   0 | 6.527585e+05 | 8.432685e+05 |  29.19%| unknown
 12.0s|     1 |     0 |  2246 |     - |   105M |   0 |5502 |6121 |6310 |  61 | 10 |  24 |   0 | 6.527953e+05 | 8.432685e+05 |  29.18%| unknown
 12.1s|     1 |     0 |  2263 |     - |   106M |   0 |5502 |6121 |6313 |  64 | 11 |  24 |   0 | 6.528354e+05 | 8.432685e+05 |  29.17%| unknown
 12.3s|     1 |     0 |  2281 |     - |   107M |   0 |5502 |6120 |6316 |  67 | 12 |  24 |   0 | 6.528524e+05 | 8.432685e+05 |  29.17%| unknown
 12.6s|     1 |     0 |  2337 |     - |   107M |   0 |5502 |6121 |6320 |  71 | 13 |  25 |   0 | 6.529480e+05 | 8.432685e+05 |  29.15%| unknown
 time | node  | left  |LP iter|LP it/n|mem/heur|mdpt |vars |cons |rows |cuts |sepa|confs|strbr|  dualbound   | primalbound  |  gap   | compl. 
 12.8s|     1 |     0 |  2385 |     - |   109M |   0 |5502 |6121 |6325 |  76 | 14 |  25 |   0 | 6.530020e+05 | 8.432685e+05 |  29.14%| unknown
 13.1s|     1 |     0 |  2755 |     - |   109M |   0 |5502 |6122 |6329 |  80 | 15 |  26 |   0 | 6.533683e+05 | 8.432685e+05 |  29.06%| unknown
 13.3s|     1 |     0 |  2840 |     - |   110M |   0 |5502 |6123 |6332 |  86 | 16 |  27 |   0 | 6.534401e+05 | 8.432685e+05 |  29.05%| unknown
 13.4s|     1 |     0 |  2888 |     - |   111M |   0 |5502 |6124 |6336 |  90 | 17 |  28 |   0 | 6.534731e+05 | 8.432685e+05 |  29.04%| unknown
 13.5s|     1 |     0 |  2919 |     - |   111M |   0 |5502 |6125 |6338 |  92 | 18 |  29 |   0 | 6.535040e+05 | 8.432685e+05 |  29.04%| unknown
 13.8s|     1 |     0 |  2983 |     - |   112M |   0 |5502 |6124 |6341 |  95 | 19 |  29 |   0 | 6.535474e+05 | 8.432685e+05 |  29.03%| unknown
 14.0s|     1 |     0 |  2994 |     - |   113M |   0 |5502 |6125 |6342 |  96 | 20 |  30 |   0 | 6.535530e+05 | 8.432685e+05 |  29.03%| unknown
d14.8s|     1 |     0 |  4269 |     - |farkasdi|   0 |5502 |6125 |6342 |   0 | 22 |  31 |   0 | 6.535530e+05 | 6.602438e+05 |   1.02%| unknown
 16.4s|     1 |     0 |  7641 |     - |   116M |   0 |5502 |6125 |6342 |  96 | 22 |  49 |   0 | 6.535530e+05 | 6.602438e+05 |   1.02%| unknown
 16.5s|     1 |     0 |  7641 |     - |   116M |   0 |5502 |6125 |6342 |  96 | 22 |  49 |   0 | 6.535530e+05 | 6.602438e+05 |   1.02%| unknown
 16.6s|     1 |     0 |  7641 |     - |   116M |   0 |5502 |6099 |6349 |  96 | 24 |  49 |   0 | 6.535530e+05 | 6.602438e+05 |   1.02%| unknown
 22.5s|     1 |     2 |  7641 |     - |   116M |   0 |5502 |6099 |6349 |  96 | 26 |  49 |  22 | 6.543797e+05 | 6.602438e+05 |   0.90%| unknown
*52.9s|    12 |     3 | 13744 |1004.6 |strongbr|   5 |5502 |6123 |6331 |  96 |  1 |  76 | 299 | 6.569688e+05 | 6.589393e+05 |   0.30%|  47.27%
*53.0s|    12 |     3 | 13977 |1025.8 |strongbr|   5 |5502 |6123 |6332 |  97 |  3 |  76 | 300 | 6.569688e+05 | 6.586704e+05 |   0.26%|  47.27%

SCIP Status        : problem is solved [optimal solution found]
Solving Time (sec) : 55.99
Solving Nodes      : 15
Primal Bound       : +6.58670379808221e+05 (5 solutions)
Dual Bound         : +6.58670379808221e+05
Gap                : 0.00 %
Solve Status: optimal
Solve Time: 56.00 seconds
Objective Value: 658670.38
